ilp_joint_2/output/refraction_ilp.lp
Maximize
  0.00477369329545424 Z_68_1_0 + 0.2830703568274206 Z_68_1_1
   + 0.0306381480758242 Z_68_1_2 + 0.0117993480544442 Z_68_1_3
   + 0.00238972159276152 Z_109_1_0 + 0.291015048631573 Z_109_1_1
   + 0.0450740484257793 Z_109_1_2 + 0.0151861060366494 Z_109_1_3
   + 0.00238972159276152 Z_109_2_0 + 0.291015048631573 Z_109_2_1
   + 0.0450740484257793 Z_109_2_2 + 0.0151861060366494 Z_109_2_3
   + 0.00282938794238424 Z_56_1_0 + 0.309513882671172 Z_56_1_1
   + 0.0140732993376773 Z_56_1_2 + 0.0232258643136917 Z_56_1_3 + [
   0.8498812508714239 Z_68_1_0 * Z_109_1_0
   + 0.4727365967151116 Z_68_1_0 * Z_109_2_0
   + 0.054529454712997 Z_68_1_0 * Z_56_1_0
   + 0.8498812508714239 Z_68_1_1 * Z_109_1_1
   + 0.4727365967151116 Z_68_1_1 * Z_109_2_1
   + 0.054529454712997 Z_68_1_1 * Z_56_1_1
   + 0.8498812508714239 Z_68_1_2 * Z_109_1_2
   + 0.4727365967151116 Z_68_1_2 * Z_109_2_2
   + 0.054529454712997 Z_68_1_2 * Z_56_1_2
   + 0.8498812508714239 Z_68_1_3 * Z_109_1_3
   + 0.4727365967151116 Z_68_1_3 * Z_109_2_3
   + 0.054529454712997 Z_68_1_3 * Z_56_1_3
   + 1.312549478803573 Z_109_1_0 * Z_56_1_0
   + 1.312549478803573 Z_109_1_1 * Z_56_1_1
   + 1.312549478803573 Z_109_1_2 * Z_56_1_2
   + 1.312549478803573 Z_109_1_3 * Z_56_1_3
   + 0.7300904367446353 Z_109_2_0 * Z_56_1_0
   + 0.7300904367446353 Z_109_2_1 * Z_56_1_1
   + 0.7300904367446353 Z_109_2_2 * Z_56_1_2
   + 0.7300904367446353 Z_109_2_3 * Z_56_1_3 ] / 2 
Subject To
 constraint1_681: Z_68_1_0 + Z_68_1_1 + Z_68_1_2 + Z_68_1_3 <= 1
 constraint1_1091: Z_109_1_0 + Z_109_1_1 + Z_109_1_2 + Z_109_1_3 <= 1
 constraint1_1092: Z_109_2_0 + Z_109_2_1 + Z_109_2_2 + Z_109_2_3 <= 1
 constraint1_561: Z_56_1_0 + Z_56_1_1 + Z_56_1_2 + Z_56_1_3 <= 1
 constraint2_680: Z_68_1_0 <= 1
 constraint2_681: Z_68_1_1 <= 1
 constraint2_682: Z_68_1_2 <= 1
 constraint2_683: Z_68_1_3 <= 1
 constraint2_610: <= 1
 constraint2_611: <= 1
 constraint2_612: <= 1
 constraint2_613: <= 1
 constraint2_1150: <= 1
 constraint2_1151: <= 1
 constraint2_1152: <= 1
 constraint2_1153: <= 1
 constraint2_1090: Z_109_1_0 + Z_109_2_0 <= 1
 constraint2_1091: Z_109_1_1 + Z_109_2_1 <= 1
 constraint2_1092: Z_109_1_2 + Z_109_2_2 <= 1
 constraint2_1093: Z_109_1_3 + Z_109_2_3 <= 1
 constraint2_560: Z_56_1_0 <= 1
 constraint2_561: Z_56_1_1 <= 1
 constraint2_562: Z_56_1_2 <= 1
 constraint2_563: Z_56_1_3 <= 1
Bounds
Binaries
 Z_68_1_0 Z_68_1_1 Z_68_1_2 Z_68_1_3 Z_109_1_0 Z_109_1_1 Z_109_1_2
 Z_109_1_3 Z_109_2_0 Z_109_2_1 Z_109_2_2 Z_109_2_3 Z_56_1_0 Z_56_1_1
 Z_56_1_2 Z_56_1_3
End
