ilp_joint_2/output/refraction_ilp.sol
# Solution for model refraction_srl_ilp
# Objective value = 2.0371534287499422e+00
Z_68_1_0 0
Z_68_1_1 1
Z_68_1_2 0
Z_68_1_3 0
Z_109_1_0 0
Z_109_1_1 1
Z_109_1_2 0
Z_109_1_3 0
Z_109_2_0 0
Z_109_2_1 0
Z_109_2_2 1
Z_109_2_3 0
Z_56_1_0 0
Z_56_1_1 1
Z_56_1_2 0
Z_56_1_3 0
